p edge 15 33 9
e 1 3
e 1 5
e 1 8
e 1 13
e 1 14
e 2 3
e 2 6
e 2 8
e 3 6
e 3 10
e 3 14
e 4 11
e 4 12
e 4 15
e 5 6
e 5 7
e 5 13
e 5 15
e 6 10
e 6 11
e 6 12
e 7 10
e 7 11
e 7 13
e 7 14
e 8 11
e 9 12
e 10 11
e 10 13
e 11 14
e 12 13
e 13 15
e 14 15
